1 10 30
4294
  4.3  0.07  19.2 47588.3   0.0
 0.05 12690.2  15.0
 0.07 18321.0  21.7
 0.05 14669.6  17.4
 0.07 20148.0  23.8
 0.03 8889.2  10.5
 0.04 11849.9  14.0
 0.03 8813.6  10.4
 0.09 25297.0  29.9
 0.07 19995.0  23.7
 0.08 22444.3  26.6
  696
 1273
 1351
 1287
 1254
 1042
  531
  627
 1437
  548
 1155
  709
  671
 1109
  938
 1178
 1391
  691
 1479
 1165
  993
  743
 1353
  808
  805
 1396
  850
  580
  520
 1369
